NAME : pr152
TYPE : OP
DIMENSION : 152
COST_LIMIT : 36841
ROUTE_NODES : 74
ROUTE_SCORE : 3902
ROUTE_COST : 36799
NODE_SEQUENCE_SECTION
1
35
48
49
50
76
74
75
73
51
77
93
94
95
116
115
96
91
79
97
98
99
90
114
113
100
89
81
101
102
103
88
112
111
104
87
83
105
106
107
86
110
109
108
85
84
41
60
61
62
63
64
59
58
42
43
57
65
66
67
68
56
55
44
45
54
69
70
71
72
53
52
46
36
-1
DEPOT_SECTION
1
-1
EOF
